20	5
0	3	3	1	2
1	2	15	5
2	2	5	20
3	2	12	4
4	2	18	19
5	1	13
6	1	10
7	1	11
8	1	21
9	3	20	19	18
10	2	8	18
11	2	20	16
12	1	9
13	0
14	2	17	13
15	2	12	14
16	0
17	3	7	8	9
18	1	21
19	1	21
20	1	21
21	0
0	0	0	0	0	0	0
1	9	5	5	0	0	0
2	4	1	0	0	0	1
3	2	0	0	2	2	0
4	6	1	0	0	0	0
5	9	5	2	1	5	2
6	9	2	1	0	0	0
7	7	0	0	0	0	4
8	8	0	0	0	0	5
9	1	5	0	3	5	3
10	8	3	0	3	5	1
11	1	0	2	1	0	4
12	2	3	2	0	0	0
13	9	1	0	0	0	0
14	1	3	3	2	4	3
15	7	4	0	3	0	0
16	5	2	4	3	5	3
17	7	4	5	0	1	0
18	1	2	0	5	0	0
19	6	0	0	0	2	0
20	1	2	0	0	5	0
21	0	0	0	0	0	0
7	6	4	8	5
